100 10
635 957
363 523
497 484
471 126
276 516
438 397
389 664
637 678
563 624
588 440
536 719
747 952
634 625
614 96
404 390
683 771
632 225
656 212
257 389
321 696
438 227
785 832
49 436
568 576
756 548
513 534
513 704
676 956
188 848
695 391
765 619
837 400
214 707
668 588
611 860
565 601
427 558
383 196
613 647
798 486
756 303
594 471
576 668
341 522
415 777
950 196
711 346
151 402
515 315
260 556
918 102
299 757
453 652
774 948
464 379
758 59
370 340
468 869
629 623
345 286
813 457
820 944
378 369
300 610
320 389
691 575
465 421
581 842
696 100
939 284
711 756
484 591
205 489
328 658
790 142
794 830
520 113
808 234
585 104
82 597
681 363
602 497
799 420
674 126
376 568
476 298
614 331
716 391
661 286
650 597
741 843
761 165
564 408
625 741
928 219
678 604
739 664
649 703
337 696
444 707
